w   1    0.1
w   2   0.4300814843604813
w   3   0.42226859428256547
w   4   0.1
w   5   0.9
w   6   0.9
w   7   0.9
w   8   0.42843900371828736
w   9   0.9
w   10  0.9
w   11  0.30742601020206417
w   12  0.049488809107645415
w   13  0.9
w   14  0.1
w   15  0.8034471945947987
w   16  0.7200176873710126
w   17  0.9
w   18  0.9002089332479072
w   19  0.1
w   20  0.9
c ind 1 2 3 4 5 6 7 8 9 0
p cnf 20 20
17 -12 -6 0
-10 18 9 0
-4 -13 2 0
1 -15 -19 0
14 8 -6 0
-1 19 -11 0
7 -11 -20 0
-16 -4 -3 0
-12 -19 7 0
-9 -2 13 0
1 7 6 0
6 -8 -11 0
16 7 -6 0
20 -13 11 0
-8 -20 9 0
-7 -12 13 0
10 -6 -7 0
-7 20 16 0
15 5 16 0
-10 4 3 0
